data/solutions/planning/wellformed/moderate/weighting/wellformed_moderate_instance62_gurobi.sol
Elapsed time: 0.39
Nodes explored: 1751
Nodes left: 1
Relative gap: 0.0
Upper bound: 26657.0
Lower bound: 26657
C[0]=860.0
C[1]=860.0
C[2]=860.0
C[3]=859.0
C[4]=859.0
y[0]=0
y[1]=2
y[2]=3
y[3]=4
y[4]=3
y[5]=2
y[6]=4
y[7]=1
y[8]=3
y[9]=3
y[10]=4
y[11]=4
y[12]=4
y[13]=0
y[14]=2
y[15]=0
y[16]=3
y[17]=3
y[18]=1
y[19]=1
y[20]=4
y[21]=2
y[22]=0
y[23]=0
y[24]=0
y[25]=1
y[26]=0
y[27]=3
y[28]=3
y[29]=4
y[30]=1
y[31]=2
y[32]=0
y[33]=1
y[34]=4
y[35]=1
y[36]=2
y[37]=2
y[38]=0
y[39]=2
